(set-logic QF_S)
(declare-fun var0 () String)
(assert (str.in.re var0 (re.++ (re.* (re.union (str.to.re "00") (str.to.re "11"))) (re.++ (re.+ (re.* (str.to.re "22"))) (re.++ (re.* (re.+ (str.to.re "333"))) (re.++ (re.* (re.* (str.to.re "44"))) (re.++ (re.+ (re.union (str.to.re "555") (str.to.re "6"))) (re.++ (re.* (re.union (str.to.re "77") (str.to.re "8"))) (re.++ (re.union (re.+ (str.to.re "999")) (re.+ (str.to.re "aa"))) (re.++ (re.+ (re.* (str.to.re "b"))) (re.++ (re.* (re.* (str.to.re "c"))) (re.++ (re.union (re.union (str.to.re "d") (str.to.re "ee")) (re.union (str.to.re "fff") (str.to.re "gg"))) (re.++ (re.union (re.* (str.to.re "hh")) (re.* (str.to.re "ii"))) (re.++ (re.+ (re.union (str.to.re "jj") (str.to.re "kkk"))) (re.++ (re.union (re.+ (str.to.re "l")) (re.+ (str.to.re "m"))) (re.++ (re.union (re.+ (str.to.re "n")) (re.+ (str.to.re "ooo"))) (re.++ (re.+ (re.+ (str.to.re "ppp"))) (re.++ (re.* (re.* (str.to.re "qqq"))) (re.++ (re.union (re.union (str.to.re "rr") (str.to.re "ss")) (re.union (str.to.re "tt") (str.to.re "u"))) (re.++ (re.union (re.+ (str.to.re "vv")) (re.+ (str.to.re "www"))) (re.++ (re.* (re.* (str.to.re "x"))) (re.++ (re.union (re.+ (str.to.re "yy")) (re.+ (str.to.re "zzz"))) (re.++ (re.* (re.* (str.to.re "AAA"))) (re.++ (re.+ (re.+ (str.to.re "BBB"))) (re.++ (re.+ (re.* (str.to.re "CCC"))) (re.++ (re.+ (re.+ (str.to.re "D"))) (re.++ (re.* (re.* (str.to.re "EE"))) (re.++ (re.union (re.* (str.to.re "FFF")) (re.* (str.to.re "GG"))) (re.++ (re.union (re.+ (str.to.re "H")) (re.+ (str.to.re "II"))) (re.++ (re.+ (re.* (str.to.re "J"))) (re.++ (re.union (re.* (str.to.re "KK")) (re.* (str.to.re "LLL"))) (re.++ (re.+ (re.union (str.to.re "MM") (str.to.re "NN"))) (re.++ (re.* (re.+ (str.to.re "OOO"))) (re.++ (re.union (re.+ (str.to.re "P")) (re.+ (str.to.re "Q"))) (re.++ (re.* (re.union (str.to.re "R") (str.to.re "S"))) (re.++ (re.* (re.union (str.to.re "TTT") (str.to.re "UUU"))) (re.* (re.union (str.to.re "VV") (str.to.re "WW")))))))))))))))))))))))))))))))))))))))
(check-sat)